1691226
0	23	54636
23	19	232009
19	18	59143
18	21	8375
21	10	10310
10	25	13666
25	13	12452
13	4	14272
4	17	5422
17	12	6303
12	24	1644
24	8	14389
8	3	8395
3	27	9482
27	1	6275
1	29	6204
29	5	7944
5	14	10550
14	20	19591
20	15	83826
15	28	55904
28	22	181849
22	9	54017
9	16	52694
16	11	168497
11	7	61690
7	26	98591
26	2	4945
2	6	5029
6	0	423122
